c t pmc
p cnf 976 1139
c p show 1 2 3 4 5 6 7 8 9 10 11 12 13 14 15 16 17 18 19 20 21 22 23 24 25 26 27 0
-1 1 28 0
-1 4 29 0
-1 7 30 0
-4 1 31 0
-4 4 32 0
-4 7 33 0
-7 1 34 0
-7 4 35 0
-7 7 36 0
-1 10 37 0
-1 13 38 0
-1 16 39 0
-4 10 40 0
-4 13 41 0
-4 16 42 0
-7 10 43 0
-7 13 44 0
-7 16 45 0
-1 19 46 0
-1 22 47 0
-1 25 48 0
-4 19 49 0
-4 22 50 0
-4 25 51 0
-7 19 52 0
-7 22 53 0
-7 25 54 0
-10 1 55 0
-10 4 56 0
-10 7 57 0
-13 1 58 0
-13 4 59 0
-13 7 60 0
-16 1 61 0
-16 4 62 0
-16 7 63 0
-10 10 64 0
-10 13 65 0
-10 16 66 0
-13 10 67 0
-13 13 68 0
-13 16 69 0
-16 10 70 0
-16 13 71 0
-16 16 72 0
-10 19 73 0
-10 22 74 0
-10 25 75 0
-13 19 76 0
-13 22 77 0
-13 25 78 0
-16 19 79 0
-16 22 80 0
-16 25 81 0
-19 1 82 0
-19 4 83 0
-19 7 84 0
-22 1 85 0
-22 4 86 0
-22 7 87 0
-25 1 88 0
-25 4 89 0
-25 7 90 0
-19 10 91 0
-19 13 92 0
-19 16 93 0
-22 10 94 0
-22 13 95 0
-22 16 96 0
-25 10 97 0
-25 13 98 0
-25 16 99 0
-19 19 100 0
-19 22 101 0
-19 25 102 0
-22 19 103 0
-22 22 104 0
-22 25 105 0
-25 19 106 0
-25 22 107 0
-25 25 108 0
-2 2 28 0
-2 5 29 0
-2 8 30 0
-5 2 31 0
-5 5 32 0
-5 8 33 0
-8 2 34 0
-8 5 35 0
-8 8 36 0
-2 11 37 0
-2 14 38 0
-2 17 39 0
-5 11 40 0
-5 14 41 0
-5 17 42 0
-8 11 43 0
-8 14 44 0
-8 17 45 0
-2 20 46 0
-2 23 47 0
-2 26 48 0
-5 20 49 0
-5 23 50 0
-5 26 51 0
-8 20 52 0
-8 23 53 0
-8 26 54 0
-11 2 55 0
-11 5 56 0
-11 8 57 0
-14 2 58 0
-14 5 59 0
-14 8 60 0
-17 2 61 0
-17 5 62 0
-17 8 63 0
-11 11 64 0
-11 14 65 0
-11 17 66 0
-14 11 67 0
-14 14 68 0
-14 17 69 0
-17 11 70 0
-17 14 71 0
-17 17 72 0
-11 20 73 0
-11 23 74 0
-11 26 75 0
-14 20 76 0
-14 23 77 0
-14 26 78 0
-17 20 79 0
-17 23 80 0
-17 26 81 0
-20 2 82 0
-20 5 83 0
-20 8 84 0
-23 2 85 0
-23 5 86 0
-23 8 87 0
-26 2 88 0
-26 5 89 0
-26 8 90 0
-20 11 91 0
-20 14 92 0
-20 17 93 0
-23 11 94 0
-23 14 95 0
-23 17 96 0
-26 11 97 0
-26 14 98 0
-26 17 99 0
-20 20 100 0
-20 23 101 0
-20 26 102 0
-23 20 103 0
-23 23 104 0
-23 26 105 0
-26 20 106 0
-26 23 107 0
-26 26 108 0
-3 3 28 0
-3 6 29 0
-3 9 30 0
-6 3 31 0
-6 6 32 0
-6 9 33 0
-9 3 34 0
-9 6 35 0
-9 9 36 0
-3 12 37 0
-3 15 38 0
-3 18 39 0
-6 12 40 0
-6 15 41 0
-6 18 42 0
-9 12 43 0
-9 15 44 0
-9 18 45 0
-3 21 46 0
-3 24 47 0
-3 27 48 0
-6 21 49 0
-6 24 50 0
-6 27 51 0
-9 21 52 0
-9 24 53 0
-9 27 54 0
-12 3 55 0
-12 6 56 0
-12 9 57 0
-15 3 58 0
-15 6 59 0
-15 9 60 0
-18 3 61 0
-18 6 62 0
-18 9 63 0
-12 12 64 0
-12 15 65 0
-12 18 66 0
-15 12 67 0
-15 15 68 0
-15 18 69 0
-18 12 70 0
-18 15 71 0
-18 18 72 0
-12 21 73 0
-12 24 74 0
-12 27 75 0
-15 21 76 0
-15 24 77 0
-15 27 78 0
-18 21 79 0
-18 24 80 0
-18 27 81 0
-21 3 82 0
-21 6 83 0
-21 9 84 0
-24 3 85 0
-24 6 86 0
-24 9 87 0
-27 3 88 0
-27 6 89 0
-27 9 90 0
-21 12 91 0
-21 15 92 0
-21 18 93 0
-24 12 94 0
-24 15 95 0
-24 18 96 0
-27 12 97 0
-27 15 98 0
-27 18 99 0
-21 21 100 0
-21 24 101 0
-21 27 102 0
-24 21 103 0
-24 24 104 0
-24 27 105 0
-27 21 106 0
-27 24 107 0
-27 27 108 0
-1 -1 -28 0
-10 -1 -29 0
-19 -1 -30 0
-4 -4 -28 0
-13 -4 -29 0
-22 -4 -30 0
-7 -7 -28 0
-16 -7 -29 0
-25 -7 -30 0
-1 -10 -31 0
-10 -10 -32 0
-19 -10 -33 0
-4 -13 -31 0
-13 -13 -32 0
-22 -13 -33 0
-7 -16 -31 0
-16 -16 -32 0
-25 -16 -33 0
-1 -19 -34 0
-10 -19 -35 0
-19 -19 -36 0
-4 -22 -34 0
-13 -22 -35 0
-22 -22 -36 0
-7 -25 -34 0
-16 -25 -35 0
-25 -25 -36 0
-1 -2 -37 0
-10 -2 -38 0
-19 -2 -39 0
-4 -5 -37 0
-13 -5 -38 0
-22 -5 -39 0
-7 -8 -37 0
-16 -8 -38 0
-25 -8 -39 0
-1 -11 -40 0
-10 -11 -41 0
-19 -11 -42 0
-4 -14 -40 0
-13 -14 -41 0
-22 -14 -42 0
-7 -17 -40 0
-16 -17 -41 0
-25 -17 -42 0
-1 -20 -43 0
-10 -20 -44 0
-19 -20 -45 0
-4 -23 -43 0
-13 -23 -44 0
-22 -23 -45 0
-7 -26 -43 0
-16 -26 -44 0
-25 -26 -45 0
-1 -3 -46 0
-10 -3 -47 0
-19 -3 -48 0
-4 -6 -46 0
-13 -6 -47 0
-22 -6 -48 0
-7 -9 -46 0
-16 -9 -47 0
-25 -9 -48 0
-1 -12 -49 0
-10 -12 -50 0
-19 -12 -51 0
-4 -15 -49 0
-13 -15 -50 0
-22 -15 -51 0
-7 -18 -49 0
-16 -18 -50 0
-25 -18 -51 0
-1 -21 -52 0
-10 -21 -53 0
-19 -21 -54 0
-4 -24 -52 0
-13 -24 -53 0
-22 -24 -54 0
-7 -27 -52 0
-16 -27 -53 0
-25 -27 -54 0
-2 -1 -55 0
-11 -1 -56 0
-20 -1 -57 0
-5 -4 -55 0
-14 -4 -56 0
-23 -4 -57 0
-8 -7 -55 0
-17 -7 -56 0
-26 -7 -57 0
-2 -10 -58 0
-11 -10 -59 0
-20 -10 -60 0
-5 -13 -58 0
-14 -13 -59 0
-23 -13 -60 0
-8 -16 -58 0
-17 -16 -59 0
-26 -16 -60 0
-2 -19 -61 0
-11 -19 -62 0
-20 -19 -63 0
-5 -22 -61 0
-14 -22 -62 0
-23 -22 -63 0
-8 -25 -61 0
-17 -25 -62 0
-26 -25 -63 0
-2 -2 -64 0
-11 -2 -65 0
-20 -2 -66 0
-5 -5 -64 0
-14 -5 -65 0
-23 -5 -66 0
-8 -8 -64 0
-17 -8 -65 0
-26 -8 -66 0
-2 -11 -67 0
-11 -11 -68 0
-20 -11 -69 0
-5 -14 -67 0
-14 -14 -68 0
-23 -14 -69 0
-8 -17 -67 0
-17 -17 -68 0
-26 -17 -69 0
-2 -20 -70 0
-11 -20 -71 0
-20 -20 -72 0
-5 -23 -70 0
-14 -23 -71 0
-23 -23 -72 0
-8 -26 -70 0
-17 -26 -71 0
-26 -26 -72 0
-2 -3 -73 0
-11 -3 -74 0
-20 -3 -75 0
-5 -6 -73 0
-14 -6 -74 0
-23 -6 -75 0
-8 -9 -73 0
-17 -9 -74 0
-26 -9 -75 0
-2 -12 -76 0
-11 -12 -77 0
-20 -12 -78 0
-5 -15 -76 0
-14 -15 -77 0
-23 -15 -78 0
-8 -18 -76 0
-17 -18 -77 0
-26 -18 -78 0
-2 -21 -79 0
-11 -21 -80 0
-20 -21 -81 0
-5 -24 -79 0
-14 -24 -80 0
-23 -24 -81 0
-8 -27 -79 0
-17 -27 -80 0
-26 -27 -81 0
-3 -1 -82 0
-12 -1 -83 0
-21 -1 -84 0
-6 -4 -82 0
-15 -4 -83 0
-24 -4 -84 0
-9 -7 -82 0
-18 -7 -83 0
-27 -7 -84 0
-3 -10 -85 0
-12 -10 -86 0
-21 -10 -87 0
-6 -13 -85 0
-15 -13 -86 0
-24 -13 -87 0
-9 -16 -85 0
-18 -16 -86 0
-27 -16 -87 0
-3 -19 -88 0
-12 -19 -89 0
-21 -19 -90 0
-6 -22 -88 0
-15 -22 -89 0
-24 -22 -90 0
-9 -25 -88 0
-18 -25 -89 0
-27 -25 -90 0
-3 -2 -91 0
-12 -2 -92 0
-21 -2 -93 0
-6 -5 -91 0
-15 -5 -92 0
-24 -5 -93 0
-9 -8 -91 0
-18 -8 -92 0
-27 -8 -93 0
-3 -11 -94 0
-12 -11 -95 0
-21 -11 -96 0
-6 -14 -94 0
-15 -14 -95 0
-24 -14 -96 0
-9 -17 -94 0
-18 -17 -95 0
-27 -17 -96 0
-3 -20 -97 0
-12 -20 -98 0
-21 -20 -99 0
-6 -23 -97 0
-15 -23 -98 0
-24 -23 -99 0
-9 -26 -97 0
-18 -26 -98 0
-27 -26 -99 0
-3 -3 -100 0
-12 -3 -101 0
-21 -3 -102 0
-6 -6 -100 0
-15 -6 -101 0
-24 -6 -102 0
-9 -9 -100 0
-18 -9 -101 0
-27 -9 -102 0
-3 -12 -103 0
-12 -12 -104 0
-21 -12 -105 0
-6 -15 -103 0
-15 -15 -104 0
-24 -15 -105 0
-9 -18 -103 0
-18 -18 -104 0
-27 -18 -105 0
-3 -21 -106 0
-12 -21 -107 0
-21 -21 -108 0
-6 -24 -106 0
-15 -24 -107 0
-24 -24 -108 0
-9 -27 -106 0
-18 -27 -107 0
-27 -27 -108 0
1 2 3 0
-1 -2 0
-1 -3 0
-2 -3 0
4 5 6 0
-4 -5 0
-4 -6 0
-5 -6 0
7 8 9 0
-7 -8 0
-7 -9 0
-8 -9 0
10 11 12 0
-10 -11 0
-10 -12 0
-11 -12 0
13 14 15 0
-13 -14 0
-13 -15 0
-14 -15 0
16 17 18 0
-16 -17 0
-16 -18 0
-17 -18 0
19 20 21 0
-19 -20 0
-19 -21 0
-20 -21 0
22 23 24 0
-22 -23 0
-22 -24 0
-23 -24 0
25 26 27 0
-25 -26 0
-25 -27 0
-26 -27 0
-899 -1 25 26 0
-899 -2 26 0
-899 -3 0
-900 -1 27 0
-900 -2 25 0
-900 -3 26 0
899 900 0
899 901 0
-901 902 903 0
-901 902 904 0
-904 905 906 0
-904 905 907 0
-907 908 909 0
-907 908 910 0
-910 911 912 0
-910 911 913 0
-913 914 915 0
-913 914 916 0
-916 917 918 0
-916 917 919 0
-919 920 921 0
-919 920 922 0
-922 923 924 0
-902 -4 19 20 0
-902 -5 20 0
-902 -6 0
-903 -4 21 0
-903 -5 19 0
-903 -6 20 0
899 900 0
899 901 0
-901 902 903 0
-901 902 904 0
-904 905 906 0
-904 905 907 0
-907 908 909 0
-907 908 910 0
-910 911 912 0
-910 911 913 0
-913 914 915 0
-913 914 916 0
-916 917 918 0
-916 917 919 0
-919 920 921 0
-919 920 922 0
-922 923 924 0
-905 -7 22 23 0
-905 -8 23 0
-905 -9 0
-906 -7 24 0
-906 -8 22 0
-906 -9 23 0
899 900 0
899 901 0
-901 902 903 0
-901 902 904 0
-904 905 906 0
-904 905 907 0
-907 908 909 0
-907 908 910 0
-910 911 912 0
-910 911 913 0
-913 914 915 0
-913 914 916 0
-916 917 918 0
-916 917 919 0
-919 920 921 0
-919 920 922 0
-922 923 924 0
-908 -10 7 8 0
-908 -11 8 0
-908 -12 0
-909 -10 9 0
-909 -11 7 0
-909 -12 8 0
899 900 0
899 901 0
-901 902 903 0
-901 902 904 0
-904 905 906 0
-904 905 907 0
-907 908 909 0
-907 908 910 0
-910 911 912 0
-910 911 913 0
-913 914 915 0
-913 914 916 0
-916 917 918 0
-916 917 919 0
-919 920 921 0
-919 920 922 0
-922 923 924 0
-911 -13 1 2 0
-911 -14 2 0
-911 -15 0
-912 -13 3 0
-912 -14 1 0
-912 -15 2 0
899 900 0
899 901 0
-901 902 903 0
-901 902 904 0
-904 905 906 0
-904 905 907 0
-907 908 909 0
-907 908 910 0
-910 911 912 0
-910 911 913 0
-913 914 915 0
-913 914 916 0
-916 917 918 0
-916 917 919 0
-919 920 921 0
-919 920 922 0
-922 923 924 0
-914 -16 4 5 0
-914 -17 5 0
-914 -18 0
-915 -16 6 0
-915 -17 4 0
-915 -18 5 0
899 900 0
899 901 0
-901 902 903 0
-901 902 904 0
-904 905 906 0
-904 905 907 0
-907 908 909 0
-907 908 910 0
-910 911 912 0
-910 911 913 0
-913 914 915 0
-913 914 916 0
-916 917 918 0
-916 917 919 0
-919 920 921 0
-919 920 922 0
-922 923 924 0
-917 -19 16 17 0
-917 -20 17 0
-917 -21 0
-918 -19 18 0
-918 -20 16 0
-918 -21 17 0
899 900 0
899 901 0
-901 902 903 0
-901 902 904 0
-904 905 906 0
-904 905 907 0
-907 908 909 0
-907 908 910 0
-910 911 912 0
-910 911 913 0
-913 914 915 0
-913 914 916 0
-916 917 918 0
-916 917 919 0
-919 920 921 0
-919 920 922 0
-922 923 924 0
-920 -22 10 11 0
-920 -23 11 0
-920 -24 0
-921 -22 12 0
-921 -23 10 0
-921 -24 11 0
899 900 0
899 901 0
-901 902 903 0
-901 902 904 0
-904 905 906 0
-904 905 907 0
-907 908 909 0
-907 908 910 0
-910 911 912 0
-910 911 913 0
-913 914 915 0
-913 914 916 0
-916 917 918 0
-916 917 919 0
-919 920 921 0
-919 920 922 0
-922 923 924 0
-923 -25 13 14 0
-923 -26 14 0
-923 -27 0
-924 -25 15 0
-924 -26 13 0
-924 -27 14 0
899 900 0
899 901 0
-901 902 903 0
-901 902 904 0
-904 905 906 0
-904 905 907 0
-907 908 909 0
-907 908 910 0
-910 911 912 0
-910 911 913 0
-913 914 915 0
-913 914 916 0
-916 917 918 0
-916 917 919 0
-919 920 921 0
-919 920 922 0
-922 923 924 0
-925 2 0
-926 1 0
925 926 0
925 927 0
-927 928 929 0
-927 928 930 0
-930 931 932 0
-930 931 933 0
-933 934 935 0
-933 934 936 0
-936 937 938 0
-936 937 939 0
-939 940 941 0
-939 940 942 0
-942 943 944 0
-942 943 945 0
-945 946 947 0
-945 946 948 0
-948 949 950 0
-928 -4 8 9 0
-928 -5 8 0
-928 -6 0
-929 -4 7 0
-929 -5 9 0
-929 -6 8 0
925 926 0
925 927 0
-927 928 929 0
-927 928 930 0
-930 931 932 0
-930 931 933 0
-933 934 935 0
-933 934 936 0
-936 937 938 0
-936 937 939 0
-939 940 941 0
-939 940 942 0
-942 943 944 0
-942 943 945 0
-945 946 947 0
-945 946 948 0
-948 949 950 0
-931 -7 5 6 0
-931 -8 5 0
-931 -9 0
-932 -7 4 0
-932 -8 6 0
-932 -9 5 0
925 926 0
925 927 0
-927 928 929 0
-927 928 930 0
-930 931 932 0
-930 931 933 0
-933 934 935 0
-933 934 936 0
-936 937 938 0
-936 937 939 0
-939 940 941 0
-939 940 942 0
-942 943 944 0
-942 943 945 0
-945 946 947 0
-945 946 948 0
-948 949 950 0
-934 -10 20 21 0
-934 -11 20 0
-934 -12 0
-935 -10 19 0
-935 -11 21 0
-935 -12 20 0
925 926 0
925 927 0
-927 928 929 0
-927 928 930 0
-930 931 932 0
-930 931 933 0
-933 934 935 0
-933 934 936 0
-936 937 938 0
-936 937 939 0
-939 940 941 0
-939 940 942 0
-942 943 944 0
-942 943 945 0
-945 946 947 0
-945 946 948 0
-948 949 950 0
-937 -13 26 27 0
-937 -14 26 0
-937 -15 0
-938 -13 25 0
-938 -14 27 0
-938 -15 26 0
925 926 0
925 927 0
-927 928 929 0
-927 928 930 0
-930 931 932 0
-930 931 933 0
-933 934 935 0
-933 934 936 0
-936 937 938 0
-936 937 939 0
-939 940 941 0
-939 940 942 0
-942 943 944 0
-942 943 945 0
-945 946 947 0
-945 946 948 0
-948 949 950 0
-940 -16 23 24 0
-940 -17 23 0
-940 -18 0
-941 -16 22 0
-941 -17 24 0
-941 -18 23 0
925 926 0
925 927 0
-927 928 929 0
-927 928 930 0
-930 931 932 0
-930 931 933 0
-933 934 935 0
-933 934 936 0
-936 937 938 0
-936 937 939 0
-939 940 941 0
-939 940 942 0
-942 943 944 0
-942 943 945 0
-945 946 947 0
-945 946 948 0
-948 949 950 0
-943 -19 11 12 0
-943 -20 11 0
-943 -21 0
-944 -19 10 0
-944 -20 12 0
-944 -21 11 0
925 926 0
925 927 0
-927 928 929 0
-927 928 930 0
-930 931 932 0
-930 931 933 0
-933 934 935 0
-933 934 936 0
-936 937 938 0
-936 937 939 0
-939 940 941 0
-939 940 942 0
-942 943 944 0
-942 943 945 0
-945 946 947 0
-945 946 948 0
-948 949 950 0
-946 -22 17 18 0
-946 -23 17 0
-946 -24 0
-947 -22 16 0
-947 -23 18 0
-947 -24 17 0
925 926 0
925 927 0
-927 928 929 0
-927 928 930 0
-930 931 932 0
-930 931 933 0
-933 934 935 0
-933 934 936 0
-936 937 938 0
-936 937 939 0
-939 940 941 0
-939 940 942 0
-942 943 944 0
-942 943 945 0
-945 946 947 0
-945 946 948 0
-948 949 950 0
-949 -25 14 15 0
-949 -26 14 0
-949 -27 0
-950 -25 13 0
-950 -26 15 0
-950 -27 14 0
925 926 0
925 927 0
-927 928 929 0
-927 928 930 0
-930 931 932 0
-930 931 933 0
-933 934 935 0
-933 934 936 0
-936 937 938 0
-936 937 939 0
-939 940 941 0
-939 940 942 0
-942 943 944 0
-942 943 945 0
-945 946 947 0
-945 946 948 0
-948 949 950 0
-951 -1 13 15 0
-951 -2 13 0
-951 -3 0
-952 -1 14 0
-952 -2 15 0
-952 -3 13 0
951 952 0
951 953 0
-953 954 955 0
-953 954 956 0
-956 957 958 0
-956 957 959 0
-959 960 961 0
-959 960 962 0
-962 963 964 0
-962 963 965 0
-965 966 967 0
-965 966 968 0
-968 969 970 0
-968 969 971 0
-971 972 973 0
-971 972 974 0
-974 975 976 0
-954 -4 16 18 0
-954 -5 16 0
-954 -6 0
-955 -4 17 0
-955 -5 18 0
-955 -6 16 0
951 952 0
951 953 0
-953 954 955 0
-953 954 956 0
-956 957 958 0
-956 957 959 0
-959 960 961 0
-959 960 962 0
-962 963 964 0
-962 963 965 0
-965 966 967 0
-965 966 968 0
-968 969 970 0
-968 969 971 0
-971 972 973 0
-971 972 974 0
-974 975 976 0
-957 -7 10 12 0
-957 -8 10 0
-957 -9 0
-958 -7 11 0
-958 -8 12 0
-958 -9 10 0
951 952 0
951 953 0
-953 954 955 0
-953 954 956 0
-956 957 958 0
-956 957 959 0
-959 960 961 0
-959 960 962 0
-962 963 964 0
-962 963 965 0
-965 966 967 0
-965 966 968 0
-968 969 970 0
-968 969 971 0
-971 972 973 0
-971 972 974 0
-974 975 976 0
-960 -10 22 24 0
-960 -11 22 0
-960 -12 0
-961 -10 23 0
-961 -11 24 0
-961 -12 22 0
951 952 0
951 953 0
-953 954 955 0
-953 954 956 0
-956 957 958 0
-956 957 959 0
-959 960 961 0
-959 960 962 0
-962 963 964 0
-962 963 965 0
-965 966 967 0
-965 966 968 0
-968 969 970 0
-968 969 971 0
-971 972 973 0
-971 972 974 0
-974 975 976 0
-963 -13 25 27 0
-963 -14 25 0
-963 -15 0
-964 -13 26 0
-964 -14 27 0
-964 -15 25 0
951 952 0
951 953 0
-953 954 955 0
-953 954 956 0
-956 957 958 0
-956 957 959 0
-959 960 961 0
-959 960 962 0
-962 963 964 0
-962 963 965 0
-965 966 967 0
-965 966 968 0
-968 969 970 0
-968 969 971 0
-971 972 973 0
-971 972 974 0
-974 975 976 0
-966 -16 19 21 0
-966 -17 19 0
-966 -18 0
-967 -16 20 0
-967 -17 21 0
-967 -18 19 0
951 952 0
951 953 0
-953 954 955 0
-953 954 956 0
-956 957 958 0
-956 957 959 0
-959 960 961 0
-959 960 962 0
-962 963 964 0
-962 963 965 0
-965 966 967 0
-965 966 968 0
-968 969 970 0
-968 969 971 0
-971 972 973 0
-971 972 974 0
-974 975 976 0
-969 -19 4 6 0
-969 -20 4 0
-969 -21 0
-970 -19 5 0
-970 -20 6 0
-970 -21 4 0
951 952 0
951 953 0
-953 954 955 0
-953 954 956 0
-956 957 958 0
-956 957 959 0
-959 960 961 0
-959 960 962 0
-962 963 964 0
-962 963 965 0
-965 966 967 0
-965 966 968 0
-968 969 970 0
-968 969 971 0
-971 972 973 0
-971 972 974 0
-974 975 976 0
-972 -22 7 9 0
-972 -23 7 0
-972 -24 0
-973 -22 8 0
-973 -23 9 0
-973 -24 7 0
951 952 0
951 953 0
-953 954 955 0
-953 954 956 0
-956 957 958 0
-956 957 959 0
-959 960 961 0
-959 960 962 0
-962 963 964 0
-962 963 965 0
-965 966 967 0
-965 966 968 0
-968 969 970 0
-968 969 971 0
-971 972 973 0
-971 972 974 0
-974 975 976 0
-975 -25 1 3 0
-975 -26 1 0
-975 -27 0
-976 -25 2 0
-976 -26 3 0
-976 -27 1 0
951 952 0
951 953 0
-953 954 955 0
-953 954 956 0
-956 957 958 0
-956 957 959 0
-959 960 961 0
-959 960 962 0
-962 963 964 0
-962 963 965 0
-965 966 967 0
-965 966 968 0
-968 969 970 0
-968 969 971 0
-971 972 973 0
-971 972 974 0
-974 975 976 0
